PROBLEM NAME: eil51_n5
KNAPSACK DATA TYPE: multiple strongly correlated
DIMENSION: 5
NUMBER OF ITEMS: 4
CAPACITY OF KNAPSACK: 1580
MIN SPEED: 0.1
MAX SPEED: 1
RENTING RATIO: 2.49
EDGE_WEIGHT_TYPE: CEIL_2D
NODE_COORD_SECTION	(INDEX, X, Y):
1	31	32
2	36	16
3	62	63
4	5	6
5	30	15
ITEMS SECTION	(INDEX, PROFIT, WEIGHT, ASSIGNED NODE NUMBER):
1	990	790	3
2	973	773	2
3	882	682	5
4	852	652	4
